
******************************************************************************
This program contains Ipopt, a library for large-scale nonlinear optimization.
 Ipopt is released as open source code under the Eclipse Public License (EPL).
         For more information visit http://projects.coin-or.org/Ipopt

This version of Ipopt was compiled from source code available at
    https://github.com/IDAES/Ipopt as part of the Institute for the Design of
    Advanced Energy Systems Process Systems Engineering Framework (IDAES PSE
    Framework) Copyright (c) 2018-2019. See https://github.com/IDAES/idaes-pse.

This version of Ipopt was compiled using HSL, a collection of Fortran codes
    for large-scale scientific computation.  All technical papers, sales and
    publicity material resulting from use of the HSL codes within IPOPT must
    contain the following acknowledgement:
        HSL, a collection of Fortran codes for large-scale scientific
        computation. See http://www.hsl.rl.ac.uk.
******************************************************************************

This is Ipopt version 3.13.2, running with linear solver ma27.

Number of nonzeros in equality constraint Jacobian...:      928
Number of nonzeros in inequality constraint Jacobian.:        0
Number of nonzeros in Lagrangian Hessian.............:      806

Total number of variables............................:      403
                     variables with only lower bounds:      124
                variables with lower and upper bounds:      217
                     variables with only upper bounds:        0
Total number of equality constraints.................:      402
Total number of inequality constraints...............:        0
        inequality constraints with only lower bounds:        0
   inequality constraints with lower and upper bounds:        0
        inequality constraints with only upper bounds:        0

iter    objective    inf_pr   inf_du lg(mu)  ||d||  lg(rg) alpha_du alpha_pr  ls
   0  0.0000000e+00 1.17e+00 9.99e-16  -1.0 0.00e+00    -  0.00e+00 0.00e+00   0
   1  1.9561698e-01 1.02e+00 1.32e+05  -1.0 1.98e+05    -  2.42e-01 1.40e-01h  1
   2  2.1610526e-01 1.01e+00 1.32e+05  -1.0 2.17e+05    -  4.92e-01 8.10e-03h  1
   3  1.7933355e+01 3.15e-01 7.37e+04  -1.0 2.30e+05    -  4.94e-01 9.90e-01h  1
   4  2.3015898e+01 4.38e-02 1.85e+03  -1.0 3.33e+04    -  7.70e-01 9.90e-01h  1
   5  2.3156590e+01 1.36e-03 5.91e+02  -1.0 1.31e+03    -  9.85e-01 9.90e-01h  1
   6  2.3161506e+01 1.45e-05 8.99e+00  -1.0 5.31e+01    -  9.90e-01 9.90e-01h  1
   7  2.3267061e+01 5.93e-05 1.31e+04  -1.0 1.60e+03    -  9.90e-01 9.90e-01H  1
   8  2.3159800e+01 1.44e-03 6.22e+07  -3.8 2.50e+03    -  9.86e-01 6.34e-01f  1
   9  2.3158184e+01 1.15e-06 6.78e+04  -3.8 2.30e+01    -  1.00e+00 1.00e+00h  1
In iteration 9, 31 Slacks too small, adjusting variable bounds
iter    objective    inf_pr   inf_du lg(mu)  ||d||  lg(rg) alpha_du alpha_pr  ls
  10  2.3158176e+01 1.46e-10 4.81e+08  -3.8 1.23e-01    -  1.00e+00 1.00e+00h  1
  11  2.3158176e+01 3.72e-12 2.34e-04  -3.8 5.85e-05    -  1.00e+00 1.00e+00h  1
  12  2.3158025e+01 3.39e-12 1.14e+06  -9.0 2.23e+00    -  1.00e+00 9.99e-01F  1
  13  2.3158025e+01 2.34e-12 1.53e-10  -9.0 1.34e-05    -  1.00e+00 1.00e+00h  1

Number of Iterations....: 13

                                   (scaled)                 (unscaled)
Objective...............:   2.3158025128820320e+01    2.3158025128820320e+01
Dual infeasibility......:   1.5279510989785194e-10    1.5279510989785194e-10
Constraint violation....:   2.3439028495886305e-12    2.3439028495886305e-12
Complementarity.........:   9.0909104526254910e-10    9.0909104526254910e-10
Overall NLP error.......:   1.4811795808680712e-10    9.0909104526254910e-10


Number of objective function evaluations             = 18
Number of objective gradient evaluations             = 14
Number of equality constraint evaluations            = 18
Number of inequality constraint evaluations          = 0
Number of equality constraint Jacobian evaluations   = 14
Number of inequality constraint Jacobian evaluations = 0
Number of Lagrangian Hessian evaluations             = 13
Total CPU secs in IPOPT (w/o function evaluations)   =      0.036
Total CPU secs in NLP function evaluations           =      0.317

EXIT: Optimal Solution Found.
